
  22    4
  10   10   10   10

   0   0   0   0   0   8 2 3 4 5 7 9 11 14 
   3  10  10  10  10   3 12 8 6 
   6  10  10  10  10   5 21 17 16 13 12 
   7  10  10  10  10   5 19 17 16 12 10 
   4  10  10  10  10   3 20 18 8 
   8  10  10  10  10   5 18 17 16 15 13 
   1  10  10  10  10   2 18 8 
   4  10  10  10  10   4 19 17 16 15 
   8  10  10  10  10   3 19 17 15 
   6  10  10  10  10   2 18 15 
  10  10  10  10  10   2 16 15 
   5  10  10  10  10   1 15 
   8  10  10  10  10   1 20 
   8  10  10  10  10   1 18 
   1  10  10  10  10   1 22
   1  10  10  10  10   1 22
   8  10  10  10  10   1 22
   9  10  10  10  10   1 22
   6  10  10  10  10   1 22
   4  10  10  10  10   1 22
   7  10  10  10  10   1 22
   0   0   0   0   0   0 
